688 d 2 4 8 18 22 33 38 44 45 47 48 49 50 51 52 54 55 56 57 58 59 60 61 62 63 64 67 68 69 70 71 73 74 75 76 77 78 79 80 81 82 84 85 86 87 88 89 91 92 93 94 95 96 97 98 99 100 102 103 104 105 106 107 109 110 111 112 113 114 115 116 117 118 121 122 123 124 125 127 128 129 130 131 132 133 134 135 136 138 139 140 141 142 143 145 146 147 148 149 150 151 152 153 156 157 158 159 160 162 163 164 165 166 167 168 169 170 173 174 175 176 177 179 180 181 182 183 184 185 186 187 189 190 191 192 193 194 196 197 198 199 200 201 202 203 204 207 208 209 210 211 213 214 215 216 217 218 219 220 221 223 224 225 226 227 228 230 231 232 233 234 235 236 237 238 240 241 242 243 244 245 247 248 249 250 251 252 253 254 255 258 259 261 262 264 265 266 267 268 269 270 271 272 274 275 276 277 278 279 280 281 282 283 284 285 286 287 288 291 292 294 295 296 297 298 299 300 301 302 303 304 307 308 310 311 312 313 314 315 316 317 318 319 320 322 323 324 325 326 327 328 329 330 331 332 333 334 335 336 339 340 342 343 344 345 346 347 348 349 350 351 352 354 355 356 358 359 360 361 362 363 364 365 366 367 368 370 371 372 373 374 375 376 377 378 379 380 381 384 385 386 387 388 389 390 391 392 393 394 396 397 398 399 400 401 402 403 404 405 406 407 410 411 412 413 414 415 416 417 418 419 420 423 424 425 426 427 428 429 430 431 432 433 435 436 437 438 439 440 441 442 443 445 446 447 448 449 450 451 452 453 455 456 457 458 459 460 461 462 463 465 466 467 468 469 470 471 472 473 475 476 477 478 479 480 481 482 483 485 486 487 488 489 490 491 492 493 494 495 496 497 498 499 500 501 502 503 504 505 506 507 508 509 510 511 512 513 514 515 516 517 518 519 520 521 522 523 524 525 526 527 528 529 530 531 532 533 534 535 536 537 538 539 540 541 542 543 544 545 546 547 548 549 550 551 552 553 554 555 556 557 558 559 560 561 562 563 564 565 566 567 568 569 570 571 572 573 574 575 576 577 578 579 580 581 582 583 584 585 586 587 588 589 590 591 592 593 594 595 596 597 598 599 600 601 602 603 604 605 606 607 608 609 610 611 612 613 614 615 616 617 618 619 620 621 622 623 624 625 626 627 628 629 630 631 632 633 634 635 636 637 638 639 640 641 642 643 644 645 646 647 648 649 650 651 652 653 654 655 656 657 658 659 660 661 662 663 664 665 666 667 668 669 670 671 672 673 674 675 676 677 678 679 680 681 682 683 684 685 686 687 688 0
689 37 -42 0 421 161 260 37 338 26 205 206 21 66 444 5 0
689 d 161 260 338 205 206 66 444 5 0
690 -42 -43 0 689 1 212 309 383 454 34 256 23 257 120 222 6 65 39 29 178 337 12 13 395 108 28 40 137 3 154 90 24 17 408 11 321 195 35 30 239 19 46 9 464 0
690 d 1 383 454 34 23 257 120 222 6 39 29 178 337 12 13 395 108 28 40 137 154 90 24 17 408 321 195 30 239 46 464 0
691 -43 0 690 246 409 341 474 32 289 21 65 290 293 16 53 155 256 43 101 27 369 37 11 144 212 10 3 83 31 421 26 353 15 171 42 126 0
691 d 690 341 474 32 21 65 290 293 16 155 256 43 37 11 212 3 421 353 171 126 0
735 0 691 263 357 422 484 31 20 83 305 306 309 172 273 15 36 72 229 42 7 119 434 26 25 382 188 10 41 689 144 246 409 14 35 369 289 27 19 101 53 9 0
